sat
(:max-memory                   18.14
 :memory                       18.04
 :nlsat-irrational-assignments 1
 :nlsat-propagations           4
 :nlsat-stages                 4
 :num-allocs                   6676
 :rlimit-count                 2015
 :time                         0.00
 :total-time                   0.01)
